(set-logic ALL)
(declare-var x (BitVec 32))
(declare-var y (BitVec 32))
(declare-var i (BitVec 32))
(declare-var j (BitVec 32))
(declare-var x! (BitVec 32))
(declare-var y! (BitVec 32))
(declare-var i! (BitVec 32))
(declare-var j! (BitVec 32))
(synth-fun inv-f((parameter0 (BitVec 32))(parameter1 (BitVec 32))(parameter2 (BitVec 32))(parameter3 (BitVec 32)))Bool) 
(constraint (=> (and (= j (_ bv0 32)) (and (= i (_ bv0 32)) (and (= x (_ bv0 32)) (= y (_ bv0 32)) ) ) )(inv-f x y i j )))
(constraint (=> (and (inv-f x y i j ) (and (= x! (bvadd x (_ bv1 32))) (and (= y! (bvadd y (_ bv1 32))) (and (= i! (bvadd i (bvadd x (_ bv1 32)))) (or (= j! (bvadd j (bvadd y (_ bv1 32)))) (= j! (bvadd j (bvadd y (_ bv2 32)))) ) ) ) ) )(inv-f x! y! i! j! )))
(constraint (=> (inv-f x y i j )(bvuge j i)))
(check-synth)

